SCIP version 5.0.0 [precision: 8 byte] [memory: block] [mode: optimized] [LP solver: NONE] [GitHash: 3bbd232]
Copyright (C) 2002-2017 Konrad-Zuse-Zentrum fuer Informationstechnik Berlin (ZIB)

External codes: 
  Readline EditLine w  GNU library for command line editing (gnu.org/s/readline)
  CppAD 20160000.1     Algorithmic Differentiation of C++ algorithms developed by B. Bell (www.coin-or.org/CppAD)
  ZLIB 1.2.5           General purpose compression library by J. Gailly and M. Adler (zlib.net)
  GMP 6.1.2            GNU Multiple Precision Arithmetic Library developed by T. Granlund (gmplib.org)

user parameter file <scip.set> not found - using default parameters

read problem <../../Split_data/output/breast/1/3_sample_breast.logreg>
============

File name	:	../../Split_data/output/breast/1/3_sample_breast.logreg
Problem name 	:	3_sample_breast
Number of data	:	155
Number of var	:	33
The given data has linear dependence
16 sets of column vector are linearly dependent:
elements are all 0
elements are all 0
elements are all 0
elements are all 0
elements are all 0
elements are all 0

[dim=1] time: 0.003246
[dim=2] time: 0.007596
[dim=3] time: 0.010928
[dim=4] time: 0.013162
[dim=5] time: 0.015132
[dim=6] Time of forward = 0.017282sec.
AIC: 141.939
k: 5

[dim=17] time: 0.005404
[dim=16] time: 0.007714
[dim=15] time: 0.010161
[dim=14] time: 0.012668
[dim=13] time: 0.014462
[dim=12] time: 0.016166
[dim=11] time: 0.018032
[dim=10] time: 0.019713
[dim=9] time: 0.021414
[dim=8] time: 0.022884
[dim=7] time: 0.024386
[dim=6] time: 0.025581
[dim=5] time: 0.026541
[dim=4] Time of backward = 0.02727sec.
AIC: 141.286
k: 5
